
Gurobi 13.0.0 (mac64[arm], .NET) logging started Wed Dec  3 18:27:41 2025

Set parameter Username
Set parameter LicenseID to value 2748832
Academic license - for non-commercial use only - expires 2026-12-02
Gurobi Optimizer version 13.0.0 build v13.0.0rc1 (mac64[arm] - Darwin 24.4.0 24E248)

CPU model: Apple M1
Thread count: 8 physical cores, 8 logical processors, using up to 8 threads

Optimize a model with 1 rows, 10 columns and 10 nonzeros (Max)
Model fingerprint: 0xd0e7faad
Model has 10 linear objective coefficients
Variable types: 0 continuous, 10 integer (10 binary)
Coefficient statistics:
  Matrix range     [2e+00, 9e+00]
  Objective range  [3e+00, 1e+01]
  Bounds range     [1e+00, 1e+00]
  RHS range        [3e+01, 3e+01]
Found heuristic solution: objective 46.0000000
Presolve removed 1 rows and 10 columns
Presolve time: 0.00s
Presolve: All rows and columns removed

Explored 0 nodes (0 simplex iterations) in 0.01 seconds (0.00 work units)
Thread count was 1 (of 8 available processors)

Solution count 2: 53 46 

Optimal solution found (tolerance 1.00e-04)
Best objective 5.300000000000e+01, best bound 5.300000000000e+01, gap 0.0000%
